149
#1
C        2.039584    -1.809498     1.769158
C        2.193655    -0.532109     1.229284
C        1.093886     0.004662     0.514735
C       -0.151354    -0.625720     0.344868
C       -0.319961    -1.818869     1.047269
C        0.723715    -2.387547     1.756301
C        3.224264     0.462803     1.179885
C        2.743995     1.509562     0.427020
N        1.440830     1.246648     0.034260
C        3.543899     2.667395     0.021115
C        3.795754     2.905913    -1.329917
C        4.620426     3.946275    -1.711917
C        5.210762     4.754894    -0.753845
C        4.970949     4.519517     0.589598
C        4.144901     3.480920     0.978002
C        0.775274    -3.614293     2.530924
C        2.106658    -3.696733     2.891037
N        2.894486    -2.683569     2.423949
C        4.491949     0.472452     1.904593
C        5.692042     0.804003     1.278900
C        6.868615     0.843055     2.003614
C        6.864392     0.555424     3.358569
C        5.675680     0.228220     3.988920
C        4.496904     0.188219     3.269235
C       -0.003246    -4.676109     2.971709
C        0.585267    -5.709757     3.720799
C        1.955944    -5.735497     4.014489
C        2.771135    -4.698319     3.571644
C        4.201375    -3.068856     2.723424
C        4.159409    -4.279311     3.484363
C        5.330900    -4.862970     3.925775
C        6.563374    -4.299214     3.606882
C        6.579633    -3.173058     2.787960
C        5.422111    -2.561635     2.331155
C        7.832876    -4.953812     4.131353
C       -0.336727    -6.831259     4.194599
C       -1.435946    -6.233791     5.085611
C        0.389160    -7.905658     5.009975
C       -0.968753    -7.517560     2.974886
C        7.771249    -5.005288     5.664656
C        9.099976    -4.191575     3.735000
C        7.933229    -6.378025     3.567112
C        0.513659     2.088302    -0.570365
C        0.748089     3.444813    -0.791430
C       -0.183965     4.243613    -1.436696
C       -1.393176     3.731844    -1.878133
C       -1.631727     2.384939    -1.593800
C       -0.730500     1.529726    -0.935521
B       -1.157126     0.086950    -0.571842
N       -2.821704     1.848279    -1.975826
C       -3.757916     2.531229    -2.695076
C       -4.829072     1.686143    -3.025433
C       -4.490657     0.396609    -2.445166
C       -3.235621     0.566263    -1.816538
C       -5.059451    -0.861219    -2.383455
C       -4.384173    -1.896062    -1.722414
C       -3.145363    -1.664258    -1.128211
C       -2.514217    -0.412931    -1.139951
C       -3.641959     3.854284    -3.054713
C       -4.688987     4.364109    -3.800930
C       -5.791348     3.572021    -4.161548
C       -5.862572     2.236443    -3.774116
C       -5.046372    -3.269525    -1.688051
C       -6.418915    -3.150454    -1.009552
C       -4.231339    -4.310341    -0.914477
C       -5.218540    -3.777581    -3.126726
C       -6.892936     4.229987    -4.983470
C       -7.478703     5.403961    -4.185851
C       -8.038298     3.271080    -5.321063
C       -6.299589     4.740368    -6.304540
C       -2.417091     4.617436    -2.581055
C       -1.798751     5.385832    -3.728717
C       -1.909283     6.768152    -3.520578
C       -2.566296     6.991546    -2.241785
C       -2.858325     5.746072    -1.668912
C       -1.210625     4.886130    -4.869475
C       -0.725991     5.783250    -5.811975
C       -0.834415     7.151034    -5.611607
C       -1.426151     7.657902    -4.465546
C       -2.905113     8.160492    -1.580825
C       -3.532772     8.067197    -0.348828
C       -3.817134     6.832359     0.214183
C       -3.482397     5.656830    -0.444531
H       -1.277625    -2.314511     1.043339
H        3.337516     2.271606    -2.075552
H        4.807719     4.124494    -2.760779
H        5.857354     5.565776    -1.054825
H        5.430132     5.147224     1.339064
H        3.955966     3.296483     2.025251
H        5.700407     1.014372     0.219244
H        7.794451     1.095798     1.507083
H        7.785904     0.585641     3.921209
H        5.667225     0.002596     5.045322
H        3.567605    -0.060277     3.761600
H       -1.055395    -4.711310     2.736590
H        2.384279    -6.555445     4.565060
H        5.268726    -5.770777     4.506473
H        7.516265    -2.743509     2.473780
H        5.491176    -1.719638     1.664920
H       -2.044152    -5.515673     4.543347
H       -2.089318    -7.021711     5.454664
H       -0.991071    -5.726257     5.939035
H       -0.327033    -8.661585     5.326682
H        0.843686    -7.481784     5.902486
H        1.154778    -8.400205     4.416615
H       -1.569817    -6.825235     2.392456
H       -0.192237    -7.920729     2.327969
H       -1.609964    -8.335911     3.296146
H        6.923790    -5.591121     6.009032
H        8.678982    -5.454748     6.062247
H        7.677375    -3.999787     6.069710
H        9.969404    -4.685941     4.164292
H        9.073168    -3.170595     4.108659
H        9.225470    -4.172696     2.655026
H        7.085891    -6.985153     3.873394
H        7.956269    -6.350153     2.479631
H        8.843120    -6.859063     3.920209
H        1.657048     3.905257    -0.445381
H        0.042069     5.288758    -1.591737
H       -6.015331    -1.039600    -2.851843
H       -2.630151    -2.478541    -0.649023
H       -4.647146     5.397842    -4.108230
H       -6.702530     1.620378    -4.047184
H       -7.078469    -2.481723    -1.555282
H       -6.896507    -4.126714    -0.955410
H       -6.305117    -2.765300     0.001836
H       -4.763214    -5.259993    -0.918910
H       -4.094151    -4.008623     0.121501
H       -3.258465    -4.470651    -1.373419
H       -5.847056    -3.111553    -3.711414
H       -4.249811    -3.848800    -3.617303
H       -5.677982    -4.763997    -3.124819
H       -6.723732     6.154238    -3.968226
H       -8.278401     5.879021    -4.750381
H       -7.886050     5.048868    -3.241386
H       -8.789625     3.798027    -5.905923
H       -8.517581     2.899161    -4.418526
H       -7.684011     2.429639    -5.911974
H       -5.526004     5.483821    -6.133973
H       -5.860701     3.915231    -6.861789
H       -7.078330     5.193483    -6.914633
H       -1.129317     3.820274    -5.026907
H       -0.260869     5.411584    -6.713191
H       -0.452610     7.830361    -6.359946
H       -1.509050     8.724087    -4.314409
H       -2.685763     9.124832    -2.014811
H       -3.804487     8.968540     0.181230
H       -4.306016     6.784421     1.176121
H       -3.706137     4.694741    -0.006440