167
#1
C       -0.236199    -0.238610     2.140285
C        0.198419    -1.543019     2.387671
C        0.562151    -2.296619     1.274017
C        0.503851    -1.810653    -0.030493
C        0.045704    -0.499084    -0.188187
C       -0.337096     0.337858     0.867763
N       -0.601669     0.542293     3.185392
C       -0.591983     0.115818     4.478876
C       -1.091803     1.806445     3.123927
C       -0.194940    -1.146252     4.864458
C       -1.258804     2.537895     1.944040
N       -0.021163     0.032798    -1.433903
C       -0.365597     1.305923    -1.759907
C        0.363674    -0.643421    -2.553527
C        0.820347    -1.943703    -2.545080
C        1.178195    -2.458463    -3.779322
C        1.085979    -1.671574    -4.938157
C        0.644796    -0.348168    -4.895008
C        0.268724     0.194913    -3.676934
C       -0.198986     1.469978    -3.163284
C       -0.476742     2.726362    -3.657471
C       -0.916531     3.730154    -2.767049
C       -1.069213     3.519256    -1.404139
C       -0.786629     2.270667    -0.834193
B       -0.827756     1.792493     0.645221
C       -1.071977     1.133437     5.321613
C       -1.125028     0.848239     6.678123
C       -0.706294    -0.409414     7.117486
C       -0.256100    -1.395725     6.224191
F        0.994101    -3.559936     1.473855
C       -1.800737     3.809077     2.158568
C       -2.129824     4.285778     3.429940
C       -1.934389     3.506725     4.577238
C       -1.404373     2.238391     4.436421
C       -0.680669    -3.358434     3.864010
C        0.036785    -4.483311     4.287533
C        1.429660    -4.100035     4.465085
C        1.563928    -2.741602     4.145538
C        0.220313    -2.138896     3.790157
C       -2.026936    -3.430322     3.555599
C       -2.656221    -4.664933     3.696571
C       -1.955499    -5.777524     4.134301
C       -0.603722    -5.702789     4.430406
C        2.538450    -4.838333     4.841731
C        3.771686    -4.207383     4.888105
C        3.899024    -2.865472     4.564712
C        2.790061    -2.117232     4.192342
C        0.286784    -4.006990    -1.233672
C        1.225866    -5.040299    -1.107964
C        2.551278    -4.450881    -0.985642
C        2.422304    -3.057866    -1.034959
C        0.968915    -2.655033    -1.212461
C       -1.058228    -4.277707    -1.348335
C       -1.469146    -5.604020    -1.334745
C       -0.545254    -6.630075    -1.212002
C        0.809535    -6.360393    -1.098622
C        3.800888    -5.027738    -0.832086
C        4.904901    -4.195670    -0.733778
C        4.771818    -2.817381    -0.792234
C        3.521464    -2.222842    -0.945580
C       -1.140030     4.944301    -3.538193
C       -0.821749     4.693541    -4.879827
C       -0.944623     5.674521    -5.838248
C       -1.397473     6.927240    -5.446331
C       -1.714904     7.182984    -4.120990
C       -1.589761     6.197542    -3.155111
C       -2.697820     5.637562     3.566823
C       -2.175879     6.704630     2.839047
C       -2.708391     7.973631     2.968010
C       -3.773906     8.198567     3.823445
C       -4.302199     7.145320     4.550770
C       -3.768195     5.876435     4.425413
C       -0.731884    -0.715319     8.557260
C        0.330446    -1.390798     9.153993
C        0.318464    -1.665518    10.508542
C       -0.756520    -1.275314    11.289532
C       -1.820465    -0.608182    10.706165
C       -1.807983    -0.328461     9.352426
C        1.487206    -2.237344    -6.235885
C        2.609713    -3.054815    -6.345451
C        2.989438    -3.570050    -7.570839
C        2.253851    -3.279931    -8.707519
C        1.135204    -2.469184    -8.610228
C        0.754983    -1.951058    -7.386739
C       -2.741021    -2.230579     3.063606
C        3.350927    -0.754109    -1.028515
C       -2.853134    -2.004180     1.696626
C       -3.434807    -0.840637     1.227005
C       -3.920846     0.101454     2.118026
C       -3.841347    -0.133661     3.479799
C       -3.252825    -1.293440     3.952695
C        3.076756    -0.008335     0.111575
C        2.832344     1.350096     0.014880
C        2.863922     1.975548    -1.220057
C        3.163401     1.244032    -2.356733
C        3.407252    -0.114285    -2.261162
C       -0.342218     3.271362    -5.054498
C       -1.086283     2.512191    -6.123638
C       -0.211626     2.115444    -7.146884
C        1.134312     2.544639    -6.796319
C        1.078932     3.212936    -5.565306
C        2.347543     2.368946    -7.440876
C        3.492913     2.871653    -6.844470
C        3.430986     3.538276    -5.629938
C        2.218041     3.716069    -4.977308
C       -2.428361     2.208549    -6.182000
C       -2.898077     1.497082    -7.278273
C       -2.038374     1.104215    -8.293009
C       -0.687321     1.408485    -8.239007
H        1.526758    -3.477832    -3.856569
H        0.629135     0.236577    -5.798462
H       -1.396790     4.336627    -0.781041
H       -1.461645     1.584044     7.392543
H        0.019772    -2.366740     6.608340
H       -2.003309     4.447787     1.312521
H       -2.180979     3.906176     5.549805
H       -3.706611    -4.747806     3.457188
H       -2.472618    -6.720645     4.236171
H       -0.062155    -6.577883     4.756349
H        2.446607    -5.885261     5.089499
H        4.648190    -4.769468     5.176354
H        4.871326    -2.396278     4.601629
H        2.888563    -1.069611     3.943148
H       -1.777663    -3.476489    -1.447709
H       -2.520379    -5.838020    -1.419015
H       -0.888019    -7.654574    -1.202258
H        1.523685    -7.164107    -0.999510
H        3.913862    -6.100368    -0.787878
H        5.888170    -4.626266    -0.610852
H        5.645961    -2.186535    -0.718018
H       -0.695753     5.473013    -6.870189
H       -1.503267     7.710748    -6.182049
H       -2.065284     8.165171    -3.838571
H       -1.840343     6.404284    -2.125132
H       -1.331755     6.539407     2.184880
H       -2.288430     8.792598     2.401803
H       -4.190311     9.190059     3.923149
H       -5.136219     7.313686     5.216781
H       -4.196732     5.055904     4.982969
H        1.179655    -1.682287     8.552716
H        1.153165    -2.183531    10.958311
H       -0.765063    -1.490200    12.347907
H       -2.664443    -0.305907    11.309347
H       -2.648921     0.177971     8.900819
H        3.200050    -3.271288    -5.466544
H        3.865462    -4.198742    -7.640340
H        2.550707    -3.684235    -9.664098
H        0.553790    -2.243243    -9.492676
H       -0.128525    -1.332828    -7.315987
H       -2.462794    -2.739545     1.007105
H       -3.501566    -0.662502     0.163471
H       -4.360110     1.017322     1.751462
H       -4.227410     0.594747     4.177881
H       -3.180025    -1.473490     5.016003
H        3.043909    -0.502282     1.072702
H        2.603480     1.919917     0.903869
H        2.653937     3.032301    -1.295145
H        3.192866     1.726282    -3.322993
H        3.625491    -0.688648    -3.150198
H        2.401993     1.846920    -8.384719
H        4.448472     2.741891    -7.331248
H        4.337649     3.920921    -5.184166
H        2.167749     4.234504    -4.030553
H       -3.098797     2.515211    -5.392327
H       -3.946734     1.246263    -7.341633
H       -2.427630     0.551235    -9.135653
H       -0.018827     1.096293    -9.027908